db/data/2255213361903518146117647735180754155.z3.out
-------------------
2500.104285703
